N = 25;
MinK = 3;
Capacity = 200;

Scale = 10;
DistanceRoundingMode = Floor;
X = array1d(0..N, [40, 45, 45, 42, 42, 42, 40, 40, 38, 38, 35, 35, 25, 22, 22, 20, 20, 18, 15, 15, 30, 30, 28, 28, 25, 25]);
Y = array1d(0..N, [50, 68, 70, 66, 68, 65, 69, 66, 68, 70, 66, 69, 85, 75, 85, 80, 85, 75, 75, 80, 50, 52, 52, 55, 50, 52]);

Demands = array1d(1..N, [10, 30, 10, 10, 10, 20, 20, 20, 10, 10, 10, 20, 30, 10, 40, 40, 20, 20, 10, 10, 20, 20, 10, 10, 40]);

ServiceTimes = array1d(1..N, [90, 90, 90, 90, 90, 90, 90, 90, 90, 90, 90, 90, 90, 90, 90, 90, 90, 90, 90, 90, 90, 90, 90, 90, 90]);

TimeWindows = array2d(1..2, 0..N, [|
     0, 890, 816,  55, 703, 15, 559, 172, 250, 489, 361, 450, 647, 30, 571, 392, 478, 105, 172, 274, 10, 918, 806, 739,  55, 172 |
  1236, 989, 879, 156, 806, 60, 764, 223, 329, 650, 406, 503, 726, 95, 616, 421, 525, 142, 261, 349, 77, 961, 889, 770, 154, 221
|]);
